(get-info :version)
; (:version "4.6.1")
; Started: 2018-07-18 14:41:03
; Silicon.buildVersion: 1.1-SNAPSHOT 116d251deeaf default 2018/07/12 12:02:11
; Input file: null
; Verifier id: 00
; ------------------------------------------------------------
; Begin preamble
; ////////// Static preamble
; 
; ; /z3config.smt2
(set-option :print-success true) ; Boogie: false
(set-option :global-decls true) ; Boogie: default
(set-option :auto_config false) ; Usually a good idea
(set-option :smt.mbqi false)
(set-option :model.v2 true)
(set-option :smt.phase_selection 0)
(set-option :smt.restart_strategy 0)
(set-option :smt.restart_factor |1.5|)
(set-option :smt.arith.random_initial_value true)
(set-option :smt.case_split 3)
(set-option :smt.delay_units true)
(set-option :smt.delay_units_threshold 16)
(set-option :nnf.sk_hack true)
(set-option :smt.qi.eager_threshold 100)
(set-option :smt.qi.cost "(+ weight generation)")
(set-option :type_check true)
(set-option :smt.bv.reflect true)
; 
; ; /preamble.smt2
(declare-datatypes () ((
    $Snap ($Snap.unit)
    ($Snap.combine ($Snap.first $Snap) ($Snap.second $Snap)))))
(declare-sort $Ref 0)
(declare-const $Ref.null $Ref)
(define-sort $Perm () Real)
(define-const $Perm.Write $Perm 1.0)
(define-const $Perm.No $Perm 0.0)
(define-fun $Perm.isValidVar ((p $Perm)) Bool
	(<= $Perm.No p))
(define-fun $Perm.isReadVar ((p $Perm) (ub $Perm)) Bool
    (and ($Perm.isValidVar p)
         (not (= p $Perm.No))
         (< p $Perm.Write)))
(define-fun $Perm.min ((p1 $Perm) (p2 $Perm)) Real
    (ite (<= p1 p2) p1 p2))
(define-fun $Math.min ((a Int) (b Int)) Int
    (ite (<= a b) a b))
(define-fun $Math.clip ((a Int)) Int
    (ite (< a 0) 0 a))
; ////////// Sorts
(declare-sort Process)
(declare-sort $FVF<$Ref>)
(declare-sort Set<$Snap>)
(declare-sort $PSF<$Snap>)
; ////////// Sort wrappers
; Declaring additional sort wrappers
(declare-fun $SortWrappers.IntTo$Snap (Int) $Snap)
(declare-fun $SortWrappers.$SnapToInt ($Snap) Int)
(assert (forall ((x Int)) (!
    (= x ($SortWrappers.$SnapToInt($SortWrappers.IntTo$Snap x)))
    :pattern (($SortWrappers.IntTo$Snap x))
    :qid |$Snap.Int|
    )))
(declare-fun $SortWrappers.BoolTo$Snap (Bool) $Snap)
(declare-fun $SortWrappers.$SnapToBool ($Snap) Bool)
(assert (forall ((x Bool)) (!
    (= x ($SortWrappers.$SnapToBool($SortWrappers.BoolTo$Snap x)))
    :pattern (($SortWrappers.BoolTo$Snap x))
    :qid |$Snap.Bool|
    )))
(declare-fun $SortWrappers.$RefTo$Snap ($Ref) $Snap)
(declare-fun $SortWrappers.$SnapTo$Ref ($Snap) $Ref)
(assert (forall ((x $Ref)) (!
    (= x ($SortWrappers.$SnapTo$Ref($SortWrappers.$RefTo$Snap x)))
    :pattern (($SortWrappers.$RefTo$Snap x))
    :qid |$Snap.$Ref|
    )))
(declare-fun $SortWrappers.$PermTo$Snap ($Perm) $Snap)
(declare-fun $SortWrappers.$SnapTo$Perm ($Snap) $Perm)
(assert (forall ((x $Perm)) (!
    (= x ($SortWrappers.$SnapTo$Perm($SortWrappers.$PermTo$Snap x)))
    :pattern (($SortWrappers.$PermTo$Snap x))
    :qid |$Snap.$Perm|
    )))
; Declaring additional sort wrappers
(declare-fun $SortWrappers.ProcessTo$Snap (Process) $Snap)
(declare-fun $SortWrappers.$SnapToProcess ($Snap) Process)
(assert (forall ((x Process)) (!
    (= x ($SortWrappers.$SnapToProcess($SortWrappers.ProcessTo$Snap x)))
    :pattern (($SortWrappers.ProcessTo$Snap x))
    :qid |$Snap.Process|
    )))
; Declaring additional sort wrappers
(declare-fun $SortWrappers.$FVF<$Ref>To$Snap ($FVF<$Ref>) $Snap)
(declare-fun $SortWrappers.$SnapTo$FVF<$Ref> ($Snap) $FVF<$Ref>)
(assert (forall ((x $FVF<$Ref>)) (!
    (= x ($SortWrappers.$SnapTo$FVF<$Ref>($SortWrappers.$FVF<$Ref>To$Snap x)))
    :pattern (($SortWrappers.$FVF<$Ref>To$Snap x))
    :qid |$Snap.$FVF<$Ref>|
    )))
; Declaring additional sort wrappers
(declare-fun $SortWrappers.Set<$Snap>To$Snap (Set<$Snap>) $Snap)
(declare-fun $SortWrappers.$SnapToSet<$Snap> ($Snap) Set<$Snap>)
(assert (forall ((x Set<$Snap>)) (!
    (= x ($SortWrappers.$SnapToSet<$Snap>($SortWrappers.Set<$Snap>To$Snap x)))
    :pattern (($SortWrappers.Set<$Snap>To$Snap x))
    :qid |$Snap.Set<$Snap>|
    )))
(declare-fun $SortWrappers.$PSF<$Snap>To$Snap ($PSF<$Snap>) $Snap)
(declare-fun $SortWrappers.$SnapTo$PSF<$Snap> ($Snap) $PSF<$Snap>)
(assert (forall ((x $PSF<$Snap>)) (!
    (= x ($SortWrappers.$SnapTo$PSF<$Snap>($SortWrappers.$PSF<$Snap>To$Snap x)))
    :pattern (($SortWrappers.$PSF<$Snap>To$Snap x))
    :qid |$Snap.$PSF<$Snap>|
    )))
; ////////// Symbols
(declare-const p_ping_omega Process)
(declare-const p_ping Process)
(declare-fun p_seq (Process Process) Process)
; /dafny_axioms/qpp_sets_declarations_dafny.smt2 [Snap]
(declare-fun Set_equal (Set<$Snap> Set<$Snap>) Bool)
(declare-fun Set_in ($Snap Set<$Snap>) Bool)
(declare-fun Set_singleton ($Snap) Set<$Snap>)
; Declaring symbols related to program functions (from program analysis)
; Snapshot variable to be used during function verification
(declare-fun s@$ () $Snap)
; Declaring predicate trigger functions
; ////////// Uniqueness assumptions from domains
; ////////// Axioms
(assert (=
  (p_seq (as p_ping_omega  Process) (as p_ping  Process))
  (as p_ping_omega  Process)))
(assert (=
  (p_seq (as p_ping  Process) (as p_ping_omega  Process))
  (as p_ping_omega  Process)))
(assert (forall ((p1 Process) (p2 Process) (p3 Process)) (!
  (= (p_seq (p_seq p1 p2) p3) (p_seq p1 (p_seq p2 p3)))
  :pattern ((p_seq (p_seq p1 p2) p3))
  )))
; End preamble
; ------------------------------------------------------------
; State saturation: after preamble
(set-option :timeout 100)
(check-sat)
; unknown
; ------------------------------------------------------------
; Begin function- and predicate-related preamble
; Declaring symbols related to program functions (from verification)
; End function- and predicate-related preamble
; ------------------------------------------------------------
; ---------- test ----------
(push) ; 1
